S1 O4
1.0
15.000000 0.000000 0.000000
-0.000000 15.000000 0.000000
0.000000 0.000000 15.000000
S O
1 4
direct
0.666667 0.666667 0.666667 S
0.758114 0.726533 0.693438 O
0.537142 0.669686 0.779735 O
0.666344 0.691306 0.662186 O
0.631825 0.591089 0.667225 O
