S1 O4
1.0
15.000000 0.000000 0.000000
-0.000000 15.000000 0.000000
0.000000 0.000000 15.000000
S O
1 4
direct
0.666667 0.666667 0.666667 S
0.707767 0.678284 0.788949 O
0.537142 0.669686 0.779735 O
0.679806 0.705272 0.675564 O
0.675704 0.632139 0.581037 O
