S1 O4
1.0
15.000000 0.000000 0.000000
-0.000000 15.000000 0.000000
0.000000 0.000000 15.000000
S O
1 4
direct
0.666667 0.666667 0.666667 S
0.755212 0.625027 0.788949 O
0.526505 0.656425 0.764295 O
0.617773 0.760198 0.675564 O
0.672507 0.544355 0.667225 O
