S1 O4
1.0
15.000000 0.000000 0.000000
-0.000000 15.000000 0.000000
0.000000 0.000000 15.000000
S O
1 4
direct
0.666667 0.666667 0.666667 S
0.693752 0.664852 0.773327 O
0.592193 0.621537 0.779735 O
0.666344 0.691306 0.662186 O
0.719211 0.582160 0.581037 O
