S1 O4
1.0
15.000000 0.000000 0.000000
-0.000000 15.000000 0.000000
0.000000 0.000000 15.000000
S O
1 4
direct
0.666667 0.666667 0.666667 S
0.693752 0.664852 0.773327 O
0.580466 0.609229 0.764295 O
0.605540 0.745144 0.662186 O
0.662323 0.619621 0.569531 O
