S1 O4
1.0
15.000000 0.000000 0.000000
-0.000000 15.000000 0.000000
0.000000 0.000000 15.000000
S O
1 4
direct
0.666667 0.666667 0.666667 S
0.792915 0.656231 0.679707 O
0.526505 0.656425 0.764295 O
0.679806 0.705272 0.675564 O
0.631825 0.591089 0.667225 O
