S1 O4
1.0
15.000000 0.000000 0.000000
-0.000000 15.000000 0.000000
0.000000 0.000000 15.000000
S O
1 4
direct
0.666667 0.666667 0.666667 S
0.751333 0.669333 0.734667 O
0.581333 0.664667 0.734000 O
0.664667 0.750667 0.618667 O
0.669333 0.582667 0.618667 O
