S1 O4
1.0
15.000000 0.000000 0.000000
-0.000000 15.000000 0.000000
0.000000 0.000000 15.000000
S O
1 4
direct
0.666667 0.666667 0.666667 S
0.743102 0.712147 0.679707 O
0.566380 0.706139 0.687627 O
0.657870 0.809539 0.572525 O
0.659190 0.533576 0.654012 O
