S1 O4
1.0
15.000000 0.000000 0.000000
-0.000000 15.000000 0.000000
0.000000 0.000000 15.000000
S O
1 4
direct
0.666667 0.666667 0.666667 S
0.792915 0.656231 0.679707 O
0.624427 0.655369 0.687627 O
0.666344 0.691306 0.662186 O
0.675704 0.632139 0.581037 O
