S1 O4
1.0
15.000000 0.000000 0.000000
-0.000000 15.000000 0.000000
0.000000 0.000000 15.000000
S O
1 4
direct
0.666667 0.666667 0.666667 S
0.743102 0.712147 0.679707 O
0.577822 0.720404 0.701518 O
0.666344 0.691306 0.662186 O
0.631825 0.591089 0.667225 O
