S1 O4
1.0
15.000000 0.000000 0.000000
-0.000000 15.000000 0.000000
0.000000 0.000000 15.000000
S O
1 4
direct
0.666667 0.666667 0.666667 S
0.707767 0.678284 0.788949 O
0.624427 0.655369 0.687627 O
0.605540 0.745144 0.662186 O
0.704970 0.570632 0.569531 O
