S1 O4
1.0
15.000000 0.000000 0.000000
-0.000000 15.000000 0.000000
0.000000 0.000000 15.000000
S O
1 4
direct
0.666667 0.666667 0.666667 S
0.693752 0.664852 0.773327 O
0.624427 0.655369 0.687627 O
0.617773 0.760198 0.675564 O
0.631825 0.591089 0.667225 O
