S1 O4
1.0
15.000000 0.000000 0.000000
-0.000000 15.000000 0.000000
0.000000 0.000000 15.000000
S O
1 4
direct
0.666667 0.666667 0.666667 S
0.808934 0.669488 0.693438 O
0.526505 0.656425 0.764295 O
0.644843 0.793508 0.561188 O
0.659190 0.533576 0.654012 O
