S1 O4
1.0
15.000000 0.000000 0.000000
-0.000000 15.000000 0.000000
0.000000 0.000000 15.000000
S O
1 4
direct
0.666667 0.666667 0.666667 S
0.743102 0.712147 0.679707 O
0.592193 0.621537 0.779735 O
0.644843 0.793508 0.561188 O
0.662323 0.619621 0.569531 O
