S1 O4
1.0
15.000000 0.000000 0.000000
-0.000000 15.000000 0.000000
0.000000 0.000000 15.000000
S O
1 4
direct
0.666667 0.666667 0.666667 S
0.693752 0.664852 0.773327 O
0.637042 0.668609 0.701518 O
0.605540 0.745144 0.662186 O
0.675704 0.632139 0.581037 O
