S1 O4
1.0
15.000000 0.000000 0.000000
-0.000000 15.000000 0.000000
0.000000 0.000000 15.000000
S O
1 4
direct
0.666667 0.666667 0.666667 S
0.792915 0.656231 0.679707 O
0.592193 0.621537 0.779735 O
0.617773 0.760198 0.675564 O
0.719211 0.582160 0.581037 O
