S1 O4
1.0
15.000000 0.000000 0.000000
-0.000000 15.000000 0.000000
0.000000 0.000000 15.000000
S O
1 4
direct
0.666667 0.666667 0.666667 S
0.755212 0.625027 0.788949 O
0.566380 0.706139 0.687627 O
0.657870 0.809539 0.572525 O
0.675704 0.632139 0.581037 O
