S1 O4
1.0
15.000000 0.000000 0.000000
-0.000000 15.000000 0.000000
0.000000 0.000000 15.000000
S O
1 4
direct
0.666667 0.666667 0.666667 S
0.740257 0.612650 0.773327 O
0.637042 0.668609 0.701518 O
0.644843 0.793508 0.561188 O
0.719211 0.582160 0.581037 O
