S1 O4
1.0
15.000000 0.000000 0.000000
-0.000000 15.000000 0.000000
0.000000 0.000000 15.000000
S O
1 4
direct
0.666667 0.666667 0.666667 S
0.758114 0.726533 0.693438 O
0.624427 0.655369 0.687627 O
0.723929 0.751048 0.572525 O
0.719211 0.582160 0.581037 O
