S1 O4
1.0
15.000000 0.000000 0.000000
-0.000000 15.000000 0.000000
0.000000 0.000000 15.000000
S O
1 4
direct
0.666667 0.666667 0.666667 S
0.808934 0.669488 0.693438 O
0.580466 0.609229 0.764295 O
0.679806 0.705272 0.675564 O
0.675704 0.632139 0.581037 O
