S1 O4
1.0
15.000000 0.000000 0.000000
-0.000000 15.000000 0.000000
0.000000 0.000000 15.000000
S O
1 4
direct
0.666667 0.666667 0.666667 S
0.693752 0.664852 0.773327 O
0.526505 0.656425 0.764295 O
0.723929 0.751048 0.572525 O
0.704970 0.570632 0.569531 O
